NAME: random-11-29262
TYPE: TSP
COMMENT: size=11 seed=29262
DIMENSION: 24
EDGE_WEIGHT_TYPE: EUC_2D
NODE_COORD_SECTION
+0 434 935
-0 434 935
+1 577 935
-1 256 28
+2 407 308
-2 646 477
+3 99 887
-3 686 286
+4 241 423
-4 387 459
+5 634 166
-5 360 912
+6 0 0
-6 861 138
+7 508 624
-7 275 371
+8 831 918
-8 487 58
+9 234 340
-9 345 672
+10 838 167
-10 504 564
+11 662 668
-11 882 306
PRECEDENCE_SECTION
+0 -0
+1 -1
+2 -2
+3 -3
+4 -4
+5 -5
+6 -6
+7 -7
+8 -8
+9 -9
+10 -10
+11 -11
EOF
